CHEMICAL = {LEAD, SULFUR, CARBON, MTBE, OCTANE, MERCURY};
number_of_pipelines = 7;
average_grade =
    [
        [0.002, 0.1, 50, 5, 85, 0.002],
        [0.005, 0.3, 70, 7, 90, 0.004],
        [0.001, 0.2, 90, 11, 91, 0.003],
        [0,     0.6, 79, 2, 87, 0.001],
        [0.003, 0.1, 45, 6, 88, 0],
        [0.003, 0.4, 63, 8, 84, 0.001],
        [0.002, 0.2, 27, 2, 92, 0.005]
    ];
epa_max = [0.00275, 0.5, 80, 10, 100, 0.003];
epa_min = [0, 0.2, 40, 2, 87, 0];
max_pipeline_supply = 30000;
production_requirement = 100000;
number_of_contract_tiers = 3;
contract_cost_per_barrel =
    [
        [50, 49, 47],
        [52, 50, 49],
        [49, 47, 46],
        [51, 50, 49],
        [50, 47, 47],
        [48, 47, 46],
        [47, 46, 46],
    ];
contract_threshold =
    [
        [0, 10000, 20000, 100000],
        [0, 10000, 15000, 100000],
        [0, 5000, 15000, 100000],
        [0, 10000, 20000, 100000],
        [0, 20000, 99999, 100000],
        [0, 10000, 20000, 100000],
        [0, 20000, 99999, 100000]
    ];
